qbf_easy_train/easy_2508_SAT.qdimacs
p cnf 21 45
a 18 12 7 0
e 1 2 3 4 5 6 8 9 10 11 13 14 15 16 17 19 20 21 0
-3 1 0
-3 2 0
-1 -2 3 0
8 6 0
8 -7 0
-6 7 -8 0
-2 -8 -9 0
2 8 -9 0
-2 8 9 0
2 -8 9 0
10 5 0
10 -9 0
-5 9 -10 0
11 4 0
11 10 0
-4 -10 -11 0
-13 12 0
-13 5 0
-12 -5 13 0
-14 -11 0
-14 -13 0
11 13 14 0
-15 -3 0
-15 -14 0
3 14 15 0
16 2 0
16 -8 0
-2 8 -16 0
-17 -2 0
-17 10 0
2 -10 17 0
-19 -17 0
-19 18 0
17 -18 19 0
-20 -16 0
-20 19 0
16 -19 20 0
21 -15 0
21 -20 0
15 20 -21 0
-6 8 -10 -19 5 -2 0
7 -16 -3 8 -1 -10 6 0
21 -16 -8 11 -15 0
10 16 -1 -5 -9 20 6 0
21 0
