sat_easy_train/easy_2508_SAT.dimacs
p cnf 121 398
-3 1 0
-3 2 0
-1 -2 3 0
-3 4 -5 0
3 -4 -5 0
-3 -4 5 0
3 4 5 0
9 -7 0
9 -8 0
7 8 -9 0
10 -6 0
10 -9 0
6 9 -10 0
5 10 -11 0
-5 -10 -11 0
5 -10 11 0
-5 10 11 0
13 11 0
13 -12 0
-11 12 -13 0
-6 -15 -16 0
6 15 -16 0
-6 15 16 0
6 -15 16 0
14 -16 -17 0
-14 16 -17 0
14 16 17 0
-14 -16 17 0
17 -4 -18 0
-17 4 -18 0
17 4 18 0
-17 -4 18 0
1 -18 -19 0
-1 18 -19 0
1 18 19 0
-1 -18 19 0
20 -13 0
20 19 0
13 -19 -20 0
21 -20 0
21 8 0
20 -8 -21 0
-23 -4 0
-23 -22 0
4 22 23 0
24 12 0
24 -8 0
-12 8 -24 0
26 25 0
26 15 0
-25 -15 -26 0
-26 -6 -27 0
26 6 -27 0
-26 6 27 0
26 -6 27 0
27 -14 -28 0
-27 14 -28 0
27 14 28 0
-27 -14 28 0
-24 -28 -29 0
24 28 -29 0
-24 28 29 0
24 -28 29 0
-30 23 0
-30 -29 0
-23 29 30 0
-31 8 0
-31 -3 0
-8 3 31 0
32 31 0
32 23 0
-31 -23 -32 0
-33 30 0
-33 32 0
-30 -32 33 0
-36 -31 0
-36 35 0
31 -35 36 0
37 -34 0
37 -36 0
34 36 -37 0
-38 -6 0
-38 -12 0
6 12 38 0
-39 -37 0
-39 -38 0
37 38 39 0
40 -18 -41 0
-40 18 -41 0
40 18 41 0
-40 -18 41 0
42 -18 0
42 41 0
18 -41 -42 0
-43 42 0
-43 42 0
-42 43 0
44 7 0
44 43 0
-7 -43 -44 0
45 -39 0
45 -44 0
39 44 -45 0
-33 -45 -46 0
33 45 -46 0
-33 45 46 0
33 -45 46 0
21 46 -47 0
-21 -46 -47 0
21 -46 47 0
-21 46 47 0
48 -31 0
48 22 0
31 -22 -48 0
49 -48 0
49 19 0
48 -19 -49 0
-51 50 0
-51 -3 0
-50 3 51 0
49 -51 -52 0
-49 51 -52 0
49 51 52 0
-49 -51 52 0
53 -4 0
53 -1 0
4 1 -53 0
54 -53 0
54 -31 0
53 31 -54 0
-55 -52 0
-55 54 0
52 -54 55 0
56 43 0
56 -43 0
57 3 0
57 -56 0
-3 56 -57 0
58 57 0
58 -25 0
-57 25 -58 0
-55 -58 -59 0
55 58 -59 0
-55 58 59 0
55 -58 59 0
-47 -59 -60 0
47 59 -60 0
-47 59 60 0
47 -59 60 0
-28 -6 -61 0
28 6 -61 0
-28 6 61 0
28 -6 61 0
-62 -61 0
-62 11 0
61 -11 62 0
-63 -1 0
-63 -25 0
1 25 63 0
64 50 0
64 28 0
-50 -28 -64 0
65 4 0
65 8 0
-4 -8 -65 0
-3 -65 -66 0
3 65 -66 0
-3 65 66 0
3 -65 66 0
-67 -31 0
-67 31 0
-68 -66 0
-68 -67 0
66 67 68 0
69 64 0
69 68 0
-64 -68 -69 0
-70 -50 0
-70 3 0
50 -3 70 0
-22 6 -71 0
22 -6 -71 0
-22 -6 71 0
22 6 71 0
-71 -1 -72 0
71 1 -72 0
-71 1 72 0
71 -1 72 0
-73 70 0
-73 72 0
-70 -72 73 0
-69 -73 -74 0
69 73 -74 0
-69 73 74 0
69 -73 74 0
-75 63 0
-75 74 0
-63 -74 75 0
76 62 0
76 75 0
-62 -75 -76 0
-77 -60 0
-77 -76 0
60 76 77 0
-79 78 0
-79 17 0
-78 -17 79 0
25 -57 -80 0
-25 57 -80 0
25 57 80 0
-25 -57 80 0
81 -80 0
81 -56 0
80 56 -81 0
82 -6 0
82 -29 0
6 29 -82 0
-83 -82 0
-83 4 0
82 -4 83 0
-84 81 0
-84 83 0
-81 -83 84 0
79 -84 -85 0
-79 84 -85 0
79 84 85 0
-79 -84 85 0
86 -77 0
86 85 0
77 -85 -86 0
-87 4 0
-87 24 0
-4 -24 87 0
-88 -87 0
-88 2 0
87 -2 88 0
89 -53 0
89 31 0
53 -31 -89 0
90 88 0
90 89 0
-88 -89 -90 0
16 -40 -91 0
-16 40 -91 0
16 40 91 0
-16 -40 91 0
90 91 -92 0
-90 -91 -92 0
90 -91 92 0
-90 91 92 0
86 92 -93 0
-86 -92 -93 0
86 -92 93 0
-86 92 93 0
-8 18 -94 0
8 -18 -94 0
-8 -18 94 0
8 18 94 0
95 -8 0
95 -94 0
8 94 -95 0
-96 57 0
-96 4 0
-57 -4 96 0
18 -96 -97 0
-18 96 -97 0
18 96 97 0
-18 -96 97 0
-95 -97 -98 0
95 97 -98 0
-95 97 98 0
95 -97 98 0
99 -5 0
99 -42 0
5 42 -99 0
-100 -22 0
-100 6 0
22 -6 100 0
101 50 0
101 100 0
-50 -100 -101 0
102 99 0
102 101 0
-99 -101 -102 0
-103 12 0
-103 -14 0
-12 14 103 0
-104 103 0
-104 -22 0
-103 22 104 0
40 78 -105 0
-40 -78 -105 0
40 -78 105 0
-40 78 105 0
106 104 0
106 -105 0
-104 105 -106 0
-11 -8 -107 0
11 8 -107 0
-11 8 107 0
11 -8 107 0
108 78 0
108 28 0
-78 -28 -108 0
-109 51 0
-109 -108 0
-51 108 109 0
109 -6 -110 0
-109 6 -110 0
109 6 110 0
-109 -6 110 0
-107 110 -111 0
107 -110 -111 0
-107 -110 111 0
107 110 111 0
112 106 0
112 -111 0
-106 111 -112 0
-113 102 0
-113 -112 0
-102 112 113 0
-114 -28 0
-114 -18 0
28 18 114 0
115 24 0
115 -114 0
-24 114 -115 0
116 -9 0
116 -26 0
9 26 -116 0
-117 41 0
-117 116 0
-41 -116 117 0
-118 115 0
-118 117 0
-115 -117 118 0
-119 113 0
-119 -118 0
-113 118 119 0
120 -98 0
120 119 0
98 -119 -120 0
121 -93 0
121 -120 0
93 120 -121 0
55 -110 112 0
-68 -8 0
-13 -37 82 -17 23 0
51 75 -102 109 83 0
-54 52 67 -40 -78 0
-62 -45 -119 60 40 89 0
84 91 -97 22 116 0
45 -102 12 -121 0
62 98 -73 -31 116 0
-6 16 34 -7 -107 -23 0
-61 74 0
109 -101 92 18 0
17 -11 -94 36 0
56 11 79 37 0
98 86 0
84 46 -65 -73 109 -14 0
-91 103 0
110 1 -66 -9 -118 0
66 -35 0
-114 46 -56 -35 43 0
-28 -4 0
72 79 -87 51 45 0
39 86 66 26 -78 0
-41 64 0
72 -65 45 102 121 0
50 -102 2 0
-55 -48 82 0
53 107 -99 0
39 23 55 111 0
-104 -62 38 -112 0
34 84 108 7 121 0
116 -42 -21 -81 -18 0
100 -43 -24 0
-74 59 -64 -88 -70 -31 0
107 -35 4 0
30 -29 12 -19 -23 0
-16 -55 104 -57 101 0
55 15 -54 38 -62 -100 0
9 -25 90 0
20 58 -85 -72 -14 0
-79 -14 2 76 0
22 -46 -41 -105 114 107 0
-100 70 77 95 -66 0
61 -69 3 68 0
-110 25 0
37 -105 87 0
-85 39 -34 -98 -116 45 0
-111 62 106 -90 86 -114 0
-83 96 0
-97 58 0
-6 91 102 56 0
-101 106 -92 -59 -13 -81 0
121 0
